500
400
280
280
280
279
279
278
278
277
275
275
275
274
274
273
272
271
271
271
270
270
270
269
269
268
268
268
267
267
267
266
265
265
265
264
264
264
264
264
263
263
263
261
261
261
260
260
260
259
258
258
258
257
257
256
256
255
255
254
254
254
254
253
253
253
253
252
252
252
249
249
248
248
247
247
246
246
245
245
245
245
243
243
242
242
242
241
241
241
241
241
241
240
239
238
238
237
236
236
235
234
234
233
233
233
232
231
231
230
230
229
229
229
228
228
228
228
227
227
227
226
226
225
225
224
224
222
220
220
220
220
220
218
218
218
217
216
216
215
215
215
214
213
213
213
212
212
211
211
211
210
210
210
209
207
207
207
207
207
205
205
205
205
205
202
202
202
200
199
199
199
198
198
196
194
194
194
193
193
193
193
192
192
192
192
192
191
191
191
190
190
189
189
188
188
187
187
186
186
186
186
186
186
185
185
183
183
183
183
182
182
181
181
180
179
178
176
176
175
174
174
174
173
173
173
173
171
171
171
171
170
169
168
167
167
166
164
164
163
163
163
163
161
161
161
161
161
159
158
157
157
157
156
155
154
154
154
153
153
153
153
153
152
152
152
152
152
151
151
151
151
151
150
150
150
150
149
148
147
146
145
145
145
145
144
144
143
143
142
142
141
140
140
139
138
138
138
138
137
137
136
136
136
136
135
135
134
134
134
133
133
133
133
132
132
132
132
132
132
132
131
130
129
129
129
129
128
128
127
126
126
125
125
124
124
124
123
122
122
122
122
121
120
120
120
118
118
116
115
115
114
114
113
113
113
112
112
112
112
110
110
109
109
108
108
108
108
107
107
107
107
106
106
105
104
104
104
103
103
103
102
101
99
99
99
98
97
97
96
96
96
96
95
94
94
93
91
90
90
89
89
89
88
88
87
87
86
86
86
85
85
85
85
84
84
84
83
83
83
83
83
83
82
80
79
79
79
78
77
77
76
76
76
76
75
75
73
73
73
73
72
71
71
71
70
70
70
70
69
68
66
65
65
65
65
64
63
62
62
61
61
60
60
60
59
59
58
57
56
56
55
54
53
52
52
51
51
50
50
50
50
49
48
48
47
46
46
44
44
43
43
43
42
42
41
41
41
41
41
40
40
